19 28 30 82 26 68 1 3 45 14 54 70 97 91 11 62 94 81 56 93 32 77 15 48 78 16 46 41 18 23 86 98 39 21 61 90 2 75 47 36 40 59 27 63 87 6 69 13 72 29 50 22 10 71 65 85 31 92 79 43 76 73 84 83 8 24 0 55 58 89 66 38 49 4 88 96 51 42 52 20 17 60 12 5 44 57 53 35 95 9 67 80 25 74 99 33 7 37 34 64 

